Read MPS format model from file dat/rmp/DER_48_32768_40.mps
Reading time = 2.98 seconds
: 32816 rows, 196752 columns, 8543529 nonzeros
Gurobi Optimizer version 9.0.0 build v9.0.0rc2 (linux64)
Optimize a model with 32816 rows, 196752 columns and 8543529 nonzeros
Model fingerprint: 0xcd986db5
Coefficient statistics:
  Matrix range     [6e-05, 1e+01]
  Objective range  [3e-01, 1e+03]
  Bounds range     [2e+05, 2e+05]
  RHS range        [1e+00, 1e+00]
Ordering time: 0.06s

Barrier statistics:
 AA' NZ     : 1.495e+06
 Factor NZ  : 1.881e+06 (roughly 100 MBytes of memory)
 Factor Ops : 1.111e+08 (less than 1 second per iteration)
 Threads    : 1

                  Objective                Residual
Iter       Primal          Dual         Primal    Dual     Compl     Time
   0   3.12109212e+09 -2.29657070e+08  2.37e+08 6.31e-03  5.39e+05     2s
   1   4.98907905e+07 -3.39785919e+07  3.42e+06 1.82e-12  7.99e+03     2s
   2   3.23478149e+06 -1.45476816e+07  2.13e+05 1.82e-12  5.62e+02     3s
   3   2.08249493e+05 -9.83780681e+06  7.29e+03 3.64e-12  6.52e+01     4s
   4   9.81359773e+04 -8.70473827e+05  1.09e+00 3.64e-12  4.92e+00     4s
   5   9.79818577e+04  7.25251917e+03  4.03e-03 1.82e-12  4.61e-01     5s
   6   9.77324742e+04  8.14180016e+04  4.75e-07 7.28e-12  8.29e-02     5s
   7   9.70664306e+04  9.14508202e+04  3.92e-08 3.64e-12  2.85e-02     6s
   8   9.68263740e+04  9.25316080e+04  2.78e-08 3.64e-12  2.18e-02     7s
   9   9.63965277e+04  9.50091542e+04  2.27e-09 7.28e-12  7.05e-03     7s
  10   9.61036107e+04  9.55659106e+04  1.46e-09 3.64e-12  2.73e-03     8s
  11   9.59586321e+04  9.57899397e+04  4.01e-09 1.82e-12  8.57e-04     9s
  12   9.59111426e+04  9.58127914e+04  4.11e-09 3.64e-12  5.00e-04    10s
  13   9.58685710e+04  9.58296655e+04  8.22e-09 5.46e-12  1.98e-04    10s
  14   9.58597124e+04  9.58364763e+04  8.77e-09 3.64e-12  1.18e-04    11s
  15   9.58541306e+04  9.58418732e+04  1.67e-08 3.64e-12  6.23e-05    12s
  16   9.58499652e+04  9.58462125e+04  1.64e-08 3.64e-12  1.91e-05    12s
  17   9.58489351e+04  9.58474035e+04  2.03e-08 1.24e-11  7.78e-06    13s
  18   9.58487869e+04  9.58478305e+04  1.99e-08 6.94e-12  4.86e-06    14s
  19   9.58486047e+04  9.58480334e+04  2.64e-08 6.85e-12  2.90e-06    14s
  20   9.58485206e+04  9.58481200e+04  1.70e-08 5.99e-12  2.04e-06    15s
  21   9.58484799e+04  9.58481471e+04  2.77e-08 5.48e-12  1.69e-06    15s
  22   9.58483962e+04  9.58481868e+04  3.89e-08 4.49e-12  1.06e-06    16s
  23   9.58483525e+04  9.58482079e+04  1.36e-07 3.47e-12  7.35e-07    16s
  24   9.58483150e+04  9.58482238e+04  1.77e-07 2.37e-12  4.63e-07    17s
  25   9.58482942e+04  9.58482381e+04  2.60e-07 1.82e-12  2.85e-07    17s
  26   9.58482761e+04  9.58482452e+04  3.32e-07 1.82e-12  1.57e-07    18s
  27   9.58482629e+04  9.58482506e+04  6.62e-07 1.82e-12  6.24e-08    18s
  28   9.58482523e+04  9.58482513e+04  2.14e-06 3.64e-12  5.14e-09    19s
  29   9.58482515e+04  9.58482514e+04  2.65e-06 3.64e-12  1.45e-10    20s
  30   9.58482514e+04  9.58482514e+04  1.27e-06 3.64e-12  8.72e-13    20s
  31   9.58482514e+04  9.58482514e+04  5.35e-07 3.64e-12  4.59e-14    21s

Barrier solved model in 31 iterations and 21.12 seconds
Optimal objective 9.58482514e+04

Solve time: 21.129965862
Barrier iterations: 31
